p cnf 752 1816
c ind 743 592 726 593 718 720 738 721 749 731 0
c ind 742 744 746 747 703 745 750 595 748 728 0
c ind 739 727 723 729 740 692 697 741 698 708 0
c ind 733 705 732 678 704 597 700 722 730 736 0
c ind 735 737 719 717 683 599 680 615 679 611 0
c ind 612 632 646 676 633 651 648 734 605 715 0
c ind 600 604 602 647 710 601 614 603 713 695 0
c ind 696 709 714 694 706 685 636 693 620 639 0
c ind 687 712 716 684 652 662 659 711 688 699 0
c ind 661 621 660 663 686 691 707 724 655 725 0
c ind 689 626 623 681 675 690 625 666 664 682 0
c ind 649 643 644 701 640 668 670 673 665 669 0
c ind 672 628 667 637 645 702 674 606 671 616 0
c ind 650 619 627 638 610 618 641 658 609 642 0
c ind 594 631 629 657 613 607 653 656 608 617 0
c ind 630 624 677 634 622 654 596 635 598 1 0
c ret 422 546 547 548 549 550 551 552 553 423 0
c ret 458 554 459 555 556 557 558 460 559 560 0
c ret 561 562 563 424 564 565 566 567 568 461 0
c ret 569 570 462 425 571 572 573 574 575 576 0
c ret 577 578 579 580 581 582 583 584 426 585 0
c ret 586 587 588 589 590 591 427 428 463 464 0
c ret 465 466 429 414 430 431 467 468 469 432 0
c ret 470 433 434 471 435 472 436 473 474 437 0
c ret 415 438 475 476 477 439 478 479 480 481 0
c ret 440 482 441 483 484 442 485 486 443 487 0
c ret 488 489 416 490 491 492 493 494 495 444 0
c ret 496 497 498 445 446 447 448 499 449 500 0
c ret 501 417 450 451 502 503 504 505 506 418 0
c ret 507 508 509 510 511 512 513 514 515 419 0
c ret 516 517 518 519 520 521 522 452 523 453 0
c ret 524 525 526 454 455 527 420 528 529 530 0
c ret 531 456 532 533 457 534 535 536 537 421 0
c ret 538 539 540 541 542 543 544 545 0
2 45 -286 0
2 -3 8 -286 0
-2 286 0
-2 -8 -45 0
-2 3 -45 0
3 -4 -5 0
-3 4 0
-3 5 0
4 645 -693 0
4 -693 -694 0
-4 693 0
-4 -645 694 0
5 -594 -740 0
5 -6 594 0
-5 6 594 0
-5 -594 740 0
6 -596 -719 0
6 -7 596 0
-6 7 596 0
-6 -596 719 0
7 -598 -695 0
7 598 -696 0
-7 598 696 0
-7 -598 695 0
8 26 -592 0
8 9 -592 0
-8 592 0
-8 -9 -26 0
9 -24 -594 0
9 10 594 0
-9 -10 594 0
-9 24 -594 0
10 -21 -596 0
10 11 596 0
-10 -11 596 0
-10 21 -596 0
11 -14 -598 0
11 12 598 0
-11 -12 598 0
-11 14 -598 0
12 -616 -637 0
12 -13 -637 0
-12 637 0
-12 13 616 0
13 -609 -610 -638 0
-13 609 0
-13 610 0
-13 638 0
12 14 15 0
14 -15 666 0
-12 -14 15 0
-14 -15 -666 0
15 16 617 0
-15 -617 0
-15 -16 0
16 17 -667 0
-16 667 0
-16 -17 0
17 18 670 0
17 18 671 0
-17 -18 0
-17 -670 -671 0
18 19 -20 617 667 0
-18 20 0
-18 -19 0
-18 -617 0
-18 -667 0
19 618 627 -674 0
-19 674 0
-19 -627 0
-19 -618 0
20 -668 670 671 0
-20 668 0
-20 -671 0
-20 -670 0
21 -22 -691 0
11 21 22 0
-11 -21 22 0
-21 -22 691 0
16 22 -23 0
-16 -22 0
-22 23 0
23 598 617 0
-23 -598 0
-23 -617 0
10 24 25 0
24 -25 717 0
-10 -24 25 0
-24 -25 -717 0
16 -23 25 596 0
23 -25 0
-16 -25 0
-25 -596 0
26 -39 734 741 0
26 -27 -39 741 0
-26 39 0
-26 -741 0
-26 27 -734 0
27 34 725 732 0
27 -28 34 732 0
-27 -34 0
-27 -732 0
-27 28 -725 0
28 -594 725 0
28 -29 594 0
-28 -594 -725 0
-28 29 594 0
29 -596 702 0
29 -30 596 0
-29 -596 -702 0
-29 30 596 0
30 -598 677 0
30 -31 598 0
-30 -598 -677 0
-30 31 598 0
31 -33 624 0
31 -33 -635 0
31 32 -33 0
-31 33 0
-31 -32 -624 635 0
32 654 656 657 -658 0
-32 658 0
-32 -657 0
-32 -654 0
-32 -656 0
33 656 657 0
33 635 654 0
33 654 657 0
33 635 656 0
-33 -654 -656 0
-33 -635 -657 0
34 35 -702 0
34 35 -724 0
-34 -35 0
-34 702 724 0
35 36 594 0
35 -594 702 724 0
-35 -594 -702 0
-35 -36 594 0
-35 -594 -724 0
36 -596 -677 0
36 37 596 0
36 -596 -701 0
-36 -37 596 0
-36 -596 677 701 0
37 -38 598 0
-37 -598 0
-37 38 0
38 -635 654 0
38 635 653 0
-38 635 -653 0
-38 -635 -654 0
39 -594 722 0
39 -40 594 0
-39 -594 -722 0
-39 40 594 0
40 -596 699 0
40 -41 596 0
-40 -596 -699 0
-40 41 596 0
41 -598 675 0
41 -42 598 0
-41 -598 -675 0
-41 42 598 0
42 43 606 0
42 43 628 629 0
-42 -43 0
-42 -606 -629 0
-42 -606 -628 0
43 44 607 -628 -629 0
-43 -607 0
-43 -44 0
-43 629 0
-43 628 0
44 -630 -631 0
-44 630 0
-44 631 0
-9 45 -64 0
45 46 -63 -64 0
-45 64 0
9 -45 -46 0
9 -45 63 0
46 47 61 0
46 47 418 0
46 -61 -418 541 0
-46 -47 418 0
-46 -61 -418 -541 0
-46 -47 61 0
47 58 -420 0
47 48 58 0
-47 -58 0
-47 -48 420 0
48 -51 -422 0
48 49 422 0
-48 -49 422 0
-48 51 -422 0
49 -440 -461 0
49 -50 -461 0
-49 461 0
-49 50 440 0
50 -433 -434 -462 0
-50 433 0
-50 434 0
-50 462 0
49 51 52 0
51 -52 490 0
-49 -51 52 0
-51 -52 -490 0
52 53 441 0
-52 -441 0
-52 -53 0
53 54 -491 0
-53 491 0
-53 -54 0
54 55 494 0
54 55 495 0
-54 -55 0
-54 -494 -495 0
55 56 -57 441 491 0
-55 57 0
-55 -56 0
-55 -441 0
-55 -491 0
56 442 451 -498 0
-56 498 0
-56 -451 0
-56 -442 0
57 -492 494 495 0
-57 492 0
-57 -495 0
-57 -494 0
58 59 -420 0
-58 420 0
-58 -59 0
59 -60 -515 0
48 59 60 0
-48 -59 60 0
-59 -60 515 0
53 60 422 441 0
-60 -422 0
-53 -60 0
-60 -441 0
-52 61 -62 0
52 -61 0
-61 62 0
62 420 422 0
-62 -420 0
-62 -422 0
-23 63 594 596 0
23 -63 0
-63 -596 0
-63 -594 0
64 -74 -90 0
64 65 -90 594 0
-64 90 0
-64 -65 74 0
-64 74 -594 0
65 66 73 0
10 65 66 -69 0
-65 -66 0
-10 -65 -73 0
-65 69 -73 0
66 -67 718 721 0
66 67 68 718 -721 0
-66 -67 -721 0
-66 67 -68 0
-66 -718 0
-66 67 721 0
67 596 598 0
-67 -596 0
-67 -598 0
-4 -6 68 0
4 -68 0
6 -68 0
-40 69 -70 720 0
-40 69 711 720 0
40 -69 0
-69 -720 0
-69 70 -711 0
70 71 702 709 0
-29 70 71 709 0
-70 -71 0
-70 -709 0
29 -70 -702 0
71 72 -677 0
71 72 -701 0
-71 -72 0
-71 677 701 0
-37 72 596 0
-72 -596 0
37 -72 0
67 -68 73 -718 0
-73 718 0
-67 -73 0
68 -73 0
-24 74 -75 87 -89 0
-74 89 0
24 -74 0
-74 75 0
-74 -87 0
75 76 -78 82 84 0
-75 78 0
-75 -84 0
-75 -76 0
-75 -82 0
70 76 -77 0
-70 -76 0
-76 77 0
36 77 710 0
77 702 710 0
-77 -710 0
-36 -77 -702 0
78 79 81 0
-78 -79 0
-78 -81 0
-67 79 -80 0
67 -79 0
-79 80 0
80 -643 644 -645 0
-80 643 0
-80 -644 0
-80 645 0
-40 -67 81 -608 0
-81 608 0
40 -81 0
67 -81 0
82 83 714 0
82 -596 714 0
-82 -714 0
-82 -83 596 0
83 598 613 0
-83 -598 0
-83 -613 0
84 85 711 0
-84 -711 0
-84 -85 0
85 -86 -702 0
85 702 713 0
-85 702 -713 0
-85 86 -702 0
86 634 635 0
86 622 -635 0
-86 -634 635 0
-86 -622 -635 0
86 87 711 -712 0
86 87 88 711 0
-87 -711 0
-86 -87 0
-87 -88 712 0
88 677 701 0
-88 -677 0
-88 -701 0
-67 80 82 89 -594 0
67 -89 0
-82 -89 0
-89 594 0
-80 -89 0
9 90 -91 -276 0
-46 90 -91 -276 0
-90 276 0
-90 91 0
-9 46 -90 0
91 -92 107 -108 -262 0
-91 262 0
-91 92 0
-91 108 0
-91 -107 0
92 -93 -594 0
76 81 92 -93 0
-92 93 0
-76 -92 594 0
-81 -92 594 0
-27 93 -94 0
27 93 106 0
-27 -93 94 0
27 -93 -106 0
94 101 572 574 0
94 -95 101 572 0
-94 -572 0
-94 -101 0
-94 95 -574 0
95 -418 549 0
95 -96 418 0
-95 -418 -549 0
-95 96 418 0
96 -420 526 0
96 -97 420 0
-96 -420 -526 0
-96 97 420 0
97 -422 501 0
97 -98 422 0
-97 -422 -501 0
-97 98 422 0
98 -100 448 0
98 -100 -459 0
98 99 -100 0
-98 100 0
-98 -99 -448 459 0
99 478 480 481 -482 0
-99 482 0
-99 -481 0
-99 -478 0
-99 -480 0
100 480 481 0
100 459 478 0
100 478 481 0
100 459 480 0
-100 -478 -480 0
-100 -459 -481 0
101 102 -549 0
101 102 -573 0
-101 -102 0
-101 549 573 0
102 103 418 0
102 -418 526 548 0
-102 -418 -526 0
-102 -103 418 0
-102 -418 -548 0
103 -420 -501 0
103 104 420 0
103 -420 -525 0
-103 -104 420 0
-103 -420 501 525 0
104 -105 422 0
-104 -422 0
-104 105 0
105 -459 478 0
105 459 477 0
-105 459 -477 0
-105 -459 -478 0
-35 106 733 0
106 725 733 0
-106 -733 0
35 -106 -725 0
27 -94 107 0
77 -94 107 0
-94 107 -594 0
94 -107 0
-27 -77 -107 594 0
-11 -75 108 -109 0
-23 -75 108 -109 0
-108 109 0
75 -108 0
11 23 -108 0
109 -110 -123 -135 -170 0
-109 170 0
-109 110 0
-109 135 0
-109 123 0
-78 110 -111 118 120 0
-110 111 0
-110 -120 0
78 -110 0
-110 -118 0
-102 111 -112 117 0
35 111 -112 117 0
-111 112 0
-111 -117 0
-35 102 -111 0
-3 112 -598 0
112 113 592 0
112 592 -598 0
-3 112 113 0
3 -112 -592 0
-112 -113 598 0
113 -114 115 0
-113 114 0
-113 -115 0
-38 114 659 0
-114 -659 0
38 -114 0
-31 -38 115 652 0
-31 115 -116 652 0
-115 -652 0
31 -115 0
38 -115 116 0
116 655 656 0
116 -635 656 0
116 623 635 -656 0
-116 -623 -656 0
-116 -635 -656 0
-116 635 -655 656 0
-114 117 -624 0
-115 117 -624 0
-117 624 0
114 115 -117 0
118 119 686 0
-118 -686 0
-118 -119 0
-86 119 -677 0
119 677 687 0
-119 677 -687 0
86 -119 -677 0
120 121 -122 0
-120 -121 0
-120 122 0
-37 121 677 684 0
-30 -37 121 684 0
37 -121 0
-121 -684 0
30 -121 -677 0
-37 122 685 0
122 677 685 0
-122 -685 0
37 -122 -677 0
123 124 127 -130 134 0
123 -124 -127 -130 134 0
-123 -134 0
-123 -124 127 0
-123 130 0
-123 124 -127 0
124 -125 -667 0
124 125 126 0
-124 -125 667 0
-124 125 -126 0
125 594 596 598 0
-125 -594 0
-125 -598 0
-125 -596 0
-17 126 667 0
-17 126 617 0
17 -126 0
-126 -617 -667 0
127 -128 -491 0
127 128 129 0
-127 -128 491 0
-127 128 -129 0
128 418 420 422 0
-128 -418 0
-128 -422 0
-128 -420 0
-54 129 491 0
-54 129 441 0
54 -129 0
-129 -441 -491 0
-5 113 130 -131 0
5 113 130 131 0
-113 -130 0
-5 -130 131 0
5 -130 -131 0
131 -418 -564 0
131 -132 418 0
-131 132 418 0
-131 -418 564 0
132 -420 -543 0
132 -133 420 0
-132 133 420 0
-132 -420 543 0
133 -422 -519 0
133 422 -520 0
-133 422 520 0
-133 -422 519 0
-121 134 -659 0
-134 659 0
121 -134 0
-35 135 -136 169 0
102 135 -136 169 0
-135 136 0
-135 -169 0
35 -102 -135 0
136 137 -139 -141 -154 0
136 -137 139 -141 -154 0
-136 154 0
-136 137 139 0
-136 141 0
-136 -137 -139 0
137 138 469 0
137 -138 586 0
-137 -138 -586 0
-137 138 -469 0
-62 138 418 0
-138 -418 0
62 -138 0
139 -140 -745 0
139 140 -645 0
-139 140 645 0
-139 -140 745 0
-67 140 594 0
-140 -594 0
67 -140 0
141 -143 144 0
141 142 -149 0
141 142 144 0
141 -143 -149 0
-141 -142 143 0
-141 -144 149 0
-125 142 746 0
13 -125 142 620 0
125 -142 0
-13 -142 -746 0
-142 -620 -746 0
-138 143 587 0
50 -138 143 444 0
138 -143 0
-50 -143 -587 0
-143 -444 -587 0
144 -146 -147 629 0
144 -145 -146 -147 0
-144 147 0
-144 146 0
-144 145 -629 0
145 631 641 0
145 -607 631 0
-145 -631 0
-145 607 -641 0
-125 146 630 0
-146 -630 0
125 -146 0
147 148 631 0
147 -148 607 0
147 148 641 0
-147 -148 -607 0
-147 148 -631 -641 0
148 -608 -642 0
-148 608 0
-148 642 0
149 -151 -152 453 0
149 -150 -151 -152 0
-149 152 0
-149 151 0
-149 150 -453 0
150 455 465 0
150 -431 455 0
-150 -455 0
-150 431 -465 0
-138 151 454 0
-151 -454 0
138 -151 0
152 153 455 0
152 -153 431 0
152 153 465 0
-152 -153 -431 0
-152 153 -455 -465 0
153 -432 -466 0
-153 432 0
-153 466 0
154 155 -157 -160 -168 0
-154 -155 0
-154 168 0
-154 160 0
-154 157 0
86 155 156 734 0
-155 -734 0
-155 -156 0
-86 -155 0
156 702 724 735 0
-156 -702 0
-156 -735 0
-156 -724 0
157 159 -594 0
82 157 -158 0
82 157 159 0
157 -158 -594 0
-82 -157 594 0
-157 158 -159 0
-140 158 643 0
-158 -643 0
140 -158 0
-128 159 467 0
-159 -467 0
128 -159 0
160 161 163 164 165 0
160 161 -163 -164 165 0
-160 -165 0
-160 -163 164 0
-160 -161 0
-160 163 -164 0
161 609 618 0
161 162 609 -617 0
-161 -609 0
-161 617 -618 0
-161 -162 -618 0
162 -616 -620 0
-162 616 0
-162 620 0
-125 163 -669 0
-163 669 0
125 -163 0
-128 164 -493 0
-164 493 0
128 -164 0
165 166 -167 0
-165 -166 0
-165 167 0
166 749 750 0
166 671 -750 0
166 -671 750 0
-166 -671 -750 0
-166 671 -749 750 0
167 590 591 0
167 495 -591 0
167 -495 591 0
-167 -495 -591 0
-167 495 -590 591 0
-142 149 168 0
143 -144 168 0
143 149 168 0
-142 -144 168 0
142 -143 -168 0
144 -149 -168 0
126 -129 169 0
-126 129 169 0
-126 -129 -169 0
126 129 -169 0
170 -171 181 -183 -191 0
-170 191 0
-170 171 0
-170 183 0
-170 -181 0
118 171 -172 -177 180 0
-118 -171 0
-171 -180 0
-171 177 0
-171 172 0
172 -173 175 -711 0
-119 172 -173 175 0
-172 173 0
-172 -175 0
119 -172 711 0
12 173 -734 0
173 -174 617 0
173 617 -734 0
12 173 -174 0
-173 174 734 0
-12 -173 -617 0
-86 174 -725 0
174 725 736 0
-174 725 -736 0
86 -174 -725 0
175 -176 -661 0
116 175 -176 0
-175 176 0
-116 -175 661 0
86 176 660 0
-176 -660 0
-86 -176 0
63 84 177 178 179 0
-63 84 177 -178 179 0
-84 -177 0
-63 -177 178 0
-177 -179 0
63 -177 -178 0
178 418 420 422 441 0
-178 -441 0
-178 -422 0
-178 -418 0
-178 -420 0
179 -613 648 0
179 598 -613 663 0
-179 613 0
-179 -598 -648 0
-179 -648 -663 0
-42 180 -608 0
-180 608 0
42 -180 0
181 182 598 0
-181 -598 0
-181 -182 0
80 180 182 0
-80 -182 0
-180 -182 0
174 183 184 185 187 0
-174 183 184 -185 187 0
-183 -184 0
-174 -183 185 0
-183 -187 0
174 -183 -185 0
85 184 734 0
-184 -734 0
-85 -184 0
185 -186 -574 0
185 574 578 0
-185 574 -578 0
-185 186 -574 0
186 458 459 0
186 446 -459 0
-186 -458 459 0
-186 -446 -459 0
187 188 728 0
187 -188 190 0
187 190 737 0
187 188 -190 0
-187 -188 -190 0
-187 188 190 -728 -737 0
188 -189 418 420 0
-188 189 0
-188 -420 0
-188 -418 0
189 422 437 0
-189 -422 0
-189 -437 0
-83 190 594 596 0
83 -190 0
-190 -596 0
-190 -594 0
191 -192 -209 -230 -239 0
-191 239 0
-191 192 0
-191 230 0
-191 209 0
192 -193 -198 -199 -205 0
-192 205 0
-192 193 0
-192 199 0
-192 198 0
174 193 194 195 196 0
174 193 -194 -195 196 0
-193 -196 0
-193 -194 195 0
-174 -193 0
-193 194 -195 0
-125 194 -744 0
-194 744 0
125 -194 0
-128 195 -585 0
-195 585 0
128 -195 0
125 196 -197 0
196 -197 608 0
-196 197 0
-125 -196 -608 0
-128 197 -432 0
-197 432 0
128 -197 0
87 119 146 151 198 0
87 119 -146 -151 198 0
-119 -198 0
146 -151 -198 0
-87 -198 0
-146 151 -198 0
199 -200 201 203 0
199 -200 -202 203 0
-199 200 0
-199 -203 0
-199 -201 202 0
-159 166 200 0
158 -167 200 0
158 166 200 0
-159 -167 200 0
-158 159 -200 0
-166 167 -200 0
-138 201 468 0
-201 -468 0
138 -201 0
-140 202 644 0
-202 -644 0
140 -202 0
203 -204 -601 0
203 -601 603 -605 0
-203 601 0
-203 204 -603 0
-203 204 605 0
204 -600 602 -603 604 0
-204 603 0
-204 -604 0
-204 600 0
-204 -602 0
125 128 205 -206 208 0
-125 -128 205 -206 208 0
-205 -208 0
-125 128 -205 0
-205 206 0
125 -128 -205 0
206 207 -594 0
79 -197 206 0
79 206 207 0
-197 206 -594 0
-79 -206 594 0
197 -206 -207 0
-125 207 -608 0
-207 608 0
125 -207 0
138 -140 208 644 0
-140 208 -468 644 0
140 -208 0
-208 -644 0
-138 -208 468 0
209 -210 -214 -220 -225 0
-209 225 0
-209 210 0
-209 220 0
-209 214 0
-86 210 -211 0
186 210 -211 -660 0
-210 211 0
86 -186 -210 0
86 -210 660 0
211 212 -705 0
-83 211 212 596 0
-211 -212 0
-211 -596 705 0
83 -211 705 0
212 -213 -617 -618 619 0
-212 213 0
-212 617 0
-212 618 0
-212 -619 0
213 -609 -616 0
-213 609 0
-213 616 0
214 -215 217 -218 -219 0
214 -215 217 218 219 0
-214 -217 0
-214 218 -219 0
-214 215 0
-214 -218 219 0
82 215 216 593 -727 0
82 215 216 -593 727 0
-82 -215 0
-215 593 727 0
-215 -216 0
-215 -593 -727 0
216 599 647 0
-216 -599 0
-216 -647 0
86 217 686 0
-217 -686 0
-86 -217 0
218 725 747 0
-218 -725 0
-218 -747 0
219 574 588 0
-219 -574 0
-219 -588 0
86 220 221 -222 0
-186 220 221 -222 0
-220 222 0
-220 -221 0
-86 186 -220 0
83 221 680 0
221 -663 680 0
-221 -680 0
-83 -221 663 0
222 223 -596 0
-156 222 224 0
-156 222 -596 0
222 223 224 0
-222 -224 596 0
156 -222 -223 0
223 549 573 577 0
-223 -549 0
-223 -577 0
-223 -573 0
83 224 688 0
-224 -688 0
-83 -224 0
-223 225 -226 229 0
156 225 -226 229 0
-225 226 0
-225 -229 0
-156 223 -225 0
226 227 636 0
226 227 -621 0
-86 226 227 0
-226 -227 0
86 -226 621 -636 0
227 -228 -613 0
227 -613 614 -615 0
-227 613 0
-227 228 -614 0
-227 228 615 0
228 -611 612 0
-228 611 0
-228 -612 0
229 -613 632 0
229 -613 614 633 0
-229 613 0
-229 -614 -632 0
-229 -632 -633 0
85 230 -231 -235 -236 0
-85 -230 0
-230 236 0
-230 235 0
-230 231 0
231 232 -233 576 734 0
231 232 -233 -576 -734 0
-231 -232 0
-231 576 -734 0
-231 233 0
-231 -576 734 0
232 -595 -704 0
232 595 704 0
-232 595 -704 0
-232 -595 704 0
233 234 -705 0
233 234 596 688 0
-233 -234 0
-233 -688 705 0
-233 -596 705 0
234 -594 728 0
234 -714 728 0
-234 -728 0
-234 594 714 0
80 86 140 224 235 0
-224 -235 0
-140 -235 0
-80 -235 0
-86 -235 0
236 -237 607 0
236 -237 608 0
236 -237 -606 0
-236 237 0
-236 606 -607 -608 0
237 238 613 0
237 238 -639 -663 0
-237 -238 0
-237 -613 639 0
-237 -613 663 0
238 621 -622 -623 0
-238 623 0
-238 622 0
-238 -621 0
239 -240 -245 -248 -251 0
-239 251 0
-239 240 0
-239 248 0
-239 245 0
240 -241 -242 597 -679 0
240 -241 -242 -597 679 0
-240 242 0
-240 597 679 0
-240 241 0
-240 -597 -679 0
241 -621 625 0
241 -624 626 0
241 -621 -624 0
241 625 626 0
-241 621 -626 0
-241 624 -625 0
242 243 -244 645 0
242 243 -244 -469 0
-242 244 0
-242 -243 0
-242 469 -645 0
243 -517 693 0
-243 517 0
-243 -693 0
244 -518 -674 0
244 498 694 0
244 498 -518 0
244 -674 694 0
-244 -498 674 0
-244 518 -694 0
245 246 -247 469 0
245 246 -247 -645 0
-245 247 0
-245 -246 0
-245 -469 645 0
246 -582 741 0
-246 582 0
-246 -741 0
247 -610 639 0
247 609 -648 0
247 609 639 0
247 -610 -648 0
-247 -609 610 0
-247 -639 648 0
248 249 250 589 748 0
248 249 250 -589 -748 0
-248 -249 0
-248 -589 748 0
-248 -250 0
-248 589 -748 0
249 -579 737 0
-249 579 0
-249 -737 0
250 582 -741 0
-250 -582 0
-250 741 0
251 -252 -255 -256 -257 0
-251 257 0
-251 252 0
-251 256 0
-251 255 0
252 253 -254 -626 -646 0
-252 254 0
-252 626 0
-252 646 0
-252 -253 0
253 618 627 0
-253 -618 0
-253 -627 0
254 647 -651 -678 679 0
-254 -647 0
-254 -679 0
-254 678 0
-254 651 0
255 -726 727 -731 -742 0
-255 742 0
-255 726 0
-255 731 0
-255 -727 0
256 -683 -703 704 -708 0
-256 708 0
-256 683 0
-256 703 0
-256 -704 0
257 -258 -261 450 626 0
257 -258 -261 -450 -626 0
-257 261 0
-257 -450 626 0
-257 258 0
-257 450 -626 0
258 -259 260 -660 0
258 -259 260 626 0
-258 259 0
-258 -260 0
-258 -626 660 0
259 -579 -694 0
259 518 737 0
259 518 -579 0
259 -694 737 0
-259 -518 694 0
-259 579 -737 0
260 517 -693 0
-260 -517 0
-260 693 0
261 647 674 0
261 -498 599 0
261 599 674 0
261 -498 647 0
-261 -599 -647 0
-261 498 -674 0
28 262 -263 -272 0
-95 262 -263 -272 0
-262 272 0
-262 263 0
-28 95 -262 0
39 263 598 0
263 -264 -266 0
263 -266 598 0
39 263 -264 0
-263 264 -598 0
-39 -263 266 0
-14 113 -182 264 -265 0
-264 265 0
14 -264 0
182 -264 0
-113 -264 0
176 265 -598 613 0
176 265 -598 -663 0
-265 598 0
-176 -265 0
-265 -613 663 0
266 -418 546 0
266 -267 418 0
-266 -418 -546 0
-266 267 418 0
267 -420 523 0
267 -268 420 0
-267 -420 -523 0
-267 268 420 0
268 -422 499 0
268 -269 422 0
-268 -422 -499 0
-268 269 422 0
269 270 430 0
269 270 452 453 0
-269 -270 0
-269 -430 -453 0
-269 -430 -452 0
270 271 431 -452 -453 0
-270 -431 0
-270 -271 0
-270 453 0
-270 452 0
271 -454 -455 0
-271 454 0
-271 455 0
-28 272 -273 275 0
95 272 -273 275 0
-272 273 0
-272 -275 0
28 -95 -272 0
-39 106 273 274 0
-106 266 273 -274 0
-39 -106 273 -274 0
106 266 273 274 0
106 -273 -274 0
-106 -273 274 0
39 -266 -273 0
-102 274 575 0
274 574 575 0
-274 -575 0
102 -274 -574 0
-70 275 -596 0
-70 122 275 0
70 -275 0
-122 -275 596 0
10 276 277 0
-23 276 277 596 0
-276 -277 0
-10 -276 -596 0
-10 23 -276 0
277 283 -596 0
277 278 280 283 0
-277 -283 0
-277 -278 596 0
-277 -280 596 0
278 598 692 698 0
278 279 -598 692 -698 0
-278 -598 698 0
-278 -279 -698 0
-278 -692 0
-278 598 -698 0
-4 279 -598 -695 0
-4 279 598 -696 0
4 -279 0
-279 -598 695 0
-279 598 696 0
-279 280 281 -598 -692 0
279 -280 0
-280 -281 0
-280 598 0
-280 692 0
-11 281 -282 686 0
-11 -121 281 -282 0
-281 282 0
11 -281 0
121 -281 -686 0
-41 282 697 0
-282 -697 0
41 -282 0
21 181 283 -284 -285 0
-283 284 0
-181 -283 0
-21 -283 0
-283 285 0
118 120 284 0
-118 -284 0
-120 -284 0
217 224 285 -596 598 0
-224 -285 0
-217 -285 0
-285 596 0
-285 -598 0
286 287 -295 0
286 -289 -293 -295 0
-286 295 0
-286 -287 289 0
-286 -287 293 0
-131 287 -288 0
131 -287 0
-287 288 0
288 469 -517 0
288 -517 -518 0
-288 517 0
-288 -469 518 0
289 290 -416 0
46 289 -416 0
-289 416 0
-46 -289 -290 0
-266 290 -291 565 0
-266 290 558 565 0
266 -290 0
-290 -565 0
-290 291 -558 0
291 292 549 556 0
-95 291 292 556 0
-291 -292 0
-291 -556 0
95 -291 -549 0
102 292 -526 0
102 292 -548 0
-102 -292 0
-292 526 548 0
293 294 -414 0
46 293 -414 0
-293 414 0
-46 -293 -294 0
-266 294 576 582 0
-94 -266 294 582 0
266 -294 0
-294 -582 0
94 -294 -576 0
295 -304 -317 0
295 296 -317 418 0
-295 317 0
-295 -296 304 0
-295 304 -418 0
296 297 303 0
47 296 297 -299 0
-296 -297 0
-47 -296 -303 0
-296 299 -303 0
-62 297 542 545 0
62 297 298 542 -545 0
-62 -297 -545 0
62 -297 -298 0
-297 -542 0
62 -297 545 0
-132 -288 298 0
132 -298 0
288 -298 0
-267 299 -300 544 0
-267 299 535 544 0
267 -299 0
-299 -544 0
-299 300 -535 0
300 301 526 533 0
-96 300 301 533 0
-300 -301 0
-300 -533 0
96 -300 -526 0
301 302 -501 0
301 302 -525 0
-301 -302 0
-301 501 525 0
-104 302 420 0
-302 -420 0
104 -302 0
62 -298 303 -542 0
-303 542 0
-62 -303 0
298 -303 0
304 -305 -306 314 -316 0
-304 316 0
-304 305 0
-304 306 0
-304 -314 0
47 61 305 0
-61 305 541 0
-47 61 -305 0
-61 -305 -541 0
306 307 308 -310 0
-300 306 308 -310 0
-306 310 0
-306 -308 0
300 -306 -307 0
103 307 534 0
307 526 534 0
-307 -534 0
-103 -307 -526 0
-62 308 -309 0
-62 -267 308 -432 0
62 -308 0
267 -308 309 0
-308 309 432 0
309 -467 468 -469 0
-309 467 0
-309 -468 0
-309 469 0
310 311 313 0
-310 -311 0
-310 -313 0
311 312 535 0
-311 -535 0
-311 -312 0
-186 312 -526 0
312 526 537 0
-312 526 -537 0
186 -312 -526 0
189 313 538 0
313 -420 538 0
-313 -538 0
-189 -313 420 0
186 314 535 -536 0
186 314 315 535 0
-314 -535 0
-186 -314 0
-314 -315 536 0
315 501 525 0
-315 -501 0
-315 -525 0
-62 309 313 316 -418 0
62 -316 0
-313 -316 0
-316 418 0
-309 -316 0
-46 317 318 -334 0
-178 317 318 -334 0
-317 334 0
-317 -318 0
46 178 -317 0
318 325 -420 0
318 319 321 325 0
-318 -325 0
-318 -319 420 0
-318 -321 420 0
319 422 516 522 0
319 320 -422 516 -522 0
-319 -422 522 0
-319 -320 -522 0
-319 -516 0
-319 422 -522 0
-288 320 -422 -519 0
-288 320 422 -520 0
288 -320 0
-320 -422 519 0
-320 422 520 0
-320 321 322 -422 -516 0
320 -321 0
-321 -322 0
-321 422 0
-321 516 0
-48 322 -324 510 0
-48 322 -323 -324 0
-322 324 0
48 -322 0
-322 323 -510 0
-104 323 501 508 0
-97 -104 323 508 0
104 -323 0
-323 -508 0
97 -323 -501 0
-268 324 521 0
-324 -521 0
268 -324 0
59 325 -326 329 -332 0
-325 326 0
-325 -329 0
-59 -325 0
-325 332 0
-323 326 -327 0
326 328 -510 0
-323 326 -510 0
326 -327 328 0
323 -326 -328 0
-326 327 510 0
-186 327 -501 0
327 501 511 0
-327 501 -511 0
186 -327 -501 0
-104 328 509 0
328 501 509 0
-328 -509 0
104 -328 -501 0
329 330 422 0
-329 -422 0
-329 -330 0
309 330 331 0
-309 -330 0
-330 -331 0
-269 331 -432 0
-331 432 0
269 -331 0
-186 332 -333 0
332 -333 -510 0
-332 333 0
186 -332 510 0
333 -420 422 437 0
333 -420 422 -512 0
-333 420 0
-333 -422 0
-333 -437 512 0
-58 334 -336 0
334 335 -336 420 0
-334 336 0
58 -334 -420 0
58 -334 -335 0
48 335 -422 0
48 335 -441 0
-48 -335 0
-335 422 441 0
-306 336 -337 -339 -413 0
-336 413 0
306 -336 0
-336 339 0
-336 337 0
-94 337 -338 0
94 274 337 0
94 -274 -337 0
-94 -337 338 0
-102 338 557 0
338 549 557 0
-338 -557 0
102 -338 -549 0
335 339 -340 -350 -411 0
-335 -339 0
-339 411 0
-339 350 0
-339 340 0
-300 308 340 -341 0
308 340 -341 349 0
-340 341 0
-308 -340 0
300 -340 -349 0
300 341 342 0
-328 341 342 420 0
-341 -342 0
-300 328 -341 0
-300 -341 -420 0
342 -343 -422 0
342 347 -422 0
51 342 -422 0
-342 422 0
-51 -342 343 -347 0
343 -344 345 0
-343 344 0
-343 -345 0
-105 344 483 0
-344 -483 0
105 -344 0
-98 -105 345 476 0
-98 345 -346 476 0
-345 -476 0
98 -345 0
105 -345 346 0
346 479 480 0
346 -459 480 0
346 447 459 -480 0
-346 -447 -480 0
-346 -459 -480 0
-346 459 -479 480 0
-330 347 348 -487 0
-330 347 348 437 0
330 -347 0
-347 -348 0
-347 -437 487 0
186 348 484 0
-348 -484 0
-186 -348 0
-307 349 418 0
-349 -418 0
307 -349 0
350 -351 -407 483 0
323 350 -351 -407 0
-350 407 0
-350 351 0
-323 -350 -483 0
351 -352 -375 -377 -405 0
-351 405 0
-351 352 0
-351 377 0
-351 375 0
352 -353 -354 -357 -361 0
-352 361 0
-352 353 0
-352 357 0
-352 354 0
185 -186 353 0
185 -223 353 0
185 353 -576 0
-185 -353 0
186 223 -353 576 0
314 354 -355 0
314 354 425 0
-314 -354 0
-354 355 -425 0
355 -427 -428 0
355 427 429 0
355 356 -427 0
-355 427 -429 0
-355 -356 -427 428 0
356 -424 426 0
-356 424 0
-356 -426 0
312 327 357 358 359 0
-357 -359 0
-357 -358 0
-312 -357 0
-327 -357 0
-186 358 -549 0
358 549 560 0
-358 549 -560 0
186 -358 -549 0
186 359 558 -559 0
186 359 360 558 0
-359 -558 0
-186 -359 0
-359 -360 559 0
360 526 548 0
-360 -526 0
-360 -548 0
361 -362 -366 -368 -371 0
-361 371 0
-361 362 0
-361 368 0
-361 366 0
362 -363 365 -421 503 0
362 -363 365 421 -503 0
-362 -365 0
-362 421 503 0
-362 363 0
-362 -421 -503 0
-189 363 -552 0
363 -364 -504 0
363 -504 -552 0
-189 363 -364 0
-363 364 552 0
189 -363 504 0
364 418 538 0
-364 -418 0
-364 -538 0
365 -422 504 0
365 -487 504 0
-365 -504 0
-365 422 487 0
128 186 309 366 367 0
-366 -367 0
-309 -366 0
-128 -366 0
-186 -366 0
189 367 512 0
-367 -512 0
-189 -367 0
368 -369 437 0
368 -369 -463 -487 0
-368 369 0
-368 -437 463 0
-368 -437 487 0
369 370 431 0
369 370 -430 0
369 370 432 0
-369 -370 0
-369 430 -431 -432 0
370 445 -446 -447 0
-370 447 0
-370 446 0
-370 -445 0
371 -372 374 -417 551 0
371 -372 374 417 -551 0
-371 -374 0
-371 417 551 0
-371 372 0
-371 -417 -551 0
372 373 437 0
372 373 -422 0
372 373 -487 0
-372 -373 0
-372 422 -437 487 0
373 -420 529 0
373 -512 529 0
-373 -529 0
-373 420 512 0
374 433 -441 444 0
374 433 440 -441 0
-374 -433 0
-374 441 0
-374 -440 -444 0
49 311 375 -376 0
311 375 -376 441 0
-375 376 0
-311 -375 0
-49 -375 -441 0
331 376 -558 0
331 -358 376 0
-331 -376 0
358 -376 558 0
377 -378 -384 -394 -399 0
-377 399 0
-377 378 0
-377 394 0
-377 384 0
309 313 378 -379 0
138 313 378 -379 0
-378 379 0
-313 -378 0
-138 -309 -378 0
379 -380 -381 463 0
379 -380 -381 -472 0
-379 381 0
-379 380 0
-379 -463 472 0
380 -434 561 0
380 433 -568 0
380 433 561 0
380 -434 -568 0
-380 -433 434 0
-380 -561 568 0
381 382 383 419 -528 0
381 382 383 -419 528 0
-381 -382 0
-381 419 528 0
-381 -383 0
-381 -419 -528 0
382 433 442 0
-382 -433 0
-382 -442 0
383 423 471 0
-383 -423 0
-383 -471 0
384 -385 -390 -392 -393 0
-384 393 0
-384 385 0
-384 392 0
-384 390 0
385 -386 -387 -388 -389 0
-385 389 0
-385 386 0
-385 388 0
-385 387 0
386 -507 -527 528 -532 0
-386 532 0
-386 507 0
-386 527 0
-386 -528 0
387 471 -475 -502 503 0
-387 -471 0
-387 -503 0
-387 502 0
-387 475 0
388 -566 567 -571 -583 0
-388 583 0
-388 566 0
-388 571 0
-388 -567 0
389 -535 -550 551 -555 0
-389 555 0
-389 535 0
-389 550 0
-389 -551 0
390 -391 450 0
390 -391 -445 -484 0
-390 391 0
-390 -450 484 0
-390 445 -450 0
391 -415 449 0
391 -448 -567 0
391 -415 -448 0
391 449 -567 0
-391 448 -449 0
-391 415 567 0
392 -442 -450 -470 0
392 -450 -451 -470 0
-392 470 0
-392 450 0
-392 442 451 0
393 471 567 0
393 415 423 0
393 423 567 0
393 415 471 0
-393 -423 -471 0
-393 -415 -567 0
-186 394 -395 398 0
394 -395 -397 398 0
-394 395 0
-394 -398 0
186 -394 397 0
395 396 -529 0
-189 395 396 420 0
-395 -396 0
-395 -420 529 0
189 -395 529 0
188 396 561 0
188 396 579 0
-188 -396 0
-396 -561 -579 0
397 -445 -484 -510 0
397 460 -484 -510 0
-397 510 0
-397 484 0
-397 445 -460 0
188 -364 398 0
188 398 552 0
188 398 568 0
-188 -398 0
364 -398 -552 -568 0
367 399 400 -401 0
399 400 -401 -420 0
-399 401 0
-399 -400 0
-367 -399 420 0
400 -437 456 0
400 -437 438 457 0
-400 437 0
-400 -438 -456 0
-400 -456 -457 0
401 403 440 0
401 402 403 0
401 403 433 0
-401 -403 0
-401 -402 -433 -440 0
402 -441 -442 443 0
-402 441 0
-402 442 0
-402 -443 0
403 -404 -437 0
403 -437 438 -439 0
-403 437 0
-403 404 -438 0
-403 404 439 0
404 -435 436 0
-404 435 0
-404 -436 0
405 406 448 0
344 345 405 406 0
-405 -406 0
-345 -405 -448 0
-344 -405 -448 0
287 406 -414 0
287 406 -416 0
-287 -406 0
-406 414 416 0
329 343 407 -408 0
-407 408 0
-343 -407 0
-329 -407 0
408 -409 -576 0
-185 -358 408 -409 0
-408 409 0
358 -408 576 0
185 -408 576 0
409 410 -558 0
-312 409 410 0
-409 -410 0
312 -409 558 0
186 410 484 -485 0
186 346 410 484 0
-410 -484 0
-186 -410 0
-346 -410 485 0
-326 411 -412 0
197 -326 411 0
326 -411 0
-197 -411 412 0
267 412 418 0
-412 -418 0
-267 -412 0
-291 -349 413 0
291 338 413 0
291 -338 -413 0
-291 349 -413 0
1 2 0
-1 -2 0
751 0

